
===== New CPLEX run =====
Instance: /home/yorig/tuner/mpils-tests/instances/miplib/medium-1/momentum1.mps
Config: /scratch/yorig/mpils-results-grid-ticks-10000/medium-1/16proc/seed-5/6_momentum1_seed-5_20260425_215516/expansion/config_param_CPXPARAM_MIP_Strategy_Dive_1_iter_1.prm
========================

Selected objective sense:  MINIMIZE
Selected objective  name:  MINIMIZE
Selected RHS        name:  rhs
Selected bound      name:  bnd
Version identifier: 22.1.2.0 | 2024-11-26 | 0edbb82fd
CPXPARAM_Threads                                 8
CPXPARAM_Parallel                                1
CPXPARAM_MIP_Cuts_Cliques                        -1
CPXPARAM_MIP_Cuts_FlowCovers                     2
CPXPARAM_MIP_Cuts_Implied                        1
CPXPARAM_MIP_Limits_GomoryCand                   25
CPXPARAM_MIP_Cuts_Gomory                         1
CPXPARAM_MIP_Cuts_PathCut                        1
CPXPARAM_MIP_Cuts_Disjunctive                    -1
CPXPARAM_Emphasis_MIP                            4
CPXPARAM_MIP_Strategy_Dive                       1
CPXPARAM_DetTimeLimit                            10000
Tried aggregator 3 times.
MIP Presolve eliminated 30810 rows and 1362 columns.
MIP Presolve modified 22293 coefficients.
Aggregator did 232 substitutions.
Reduced MIP has 11638 rows, 3580 columns, and 46688 nonzeros.
Reduced MIP has 1625 binaries, 0 generals, 0 SOSs, and 0 indicators.
Presolve time = 0.10 sec. (139.58 ticks)
Found incumbent of value 533875.101733 after 0.12 sec. (154.72 ticks)
Probing fixed 392 vars, tightened 1078 bounds.
Probing changed sense of 113 constraints.
Probing time = 0.08 sec. (90.30 ticks)
Cover probing fixed 0 vars, tightened 267 bounds.
Tried aggregator 2 times.
MIP Presolve eliminated 3295 rows and 847 columns.
MIP Presolve modified 7082 coefficients.
Aggregator did 11 substitutions.
Reduced MIP has 8332 rows, 2722 columns, and 31418 nonzeros.
Reduced MIP has 1168 binaries, 0 generals, 0 SOSs, and 0 indicators.
Presolve time = 0.04 sec. (44.43 ticks)
Probing fixed 1 vars, tightened 256 bounds.
Probing time = 0.04 sec. (44.20 ticks)
Cover probing fixed 0 vars, tightened 190 bounds.
Tried aggregator 1 time.
Detecting symmetries...
MIP Presolve eliminated 26 rows and 2 columns.
MIP Presolve modified 5059 coefficients.
Reduced MIP has 8306 rows, 2720 columns, and 31355 nonzeros.
Reduced MIP has 1167 binaries, 0 generals, 0 SOSs, and 0 indicators.
Presolve time = 0.02 sec. (22.06 ticks)
Probing fixed 0 vars, tightened 90 bounds.
Probing time = 0.04 sec. (40.55 ticks)
Cover probing fixed 0 vars, tightened 69 bounds.
Clique table members: 18692.
MIP emphasis: hidden feasible solutions.
MIP search method: dynamic search.
Parallel mode: deterministic, using up to 8 threads.
Root relaxation solution time = 0.11 sec. (144.31 ticks)

        Nodes                                         Cuts/
   Node  Left     Objective  IInf  Best Integer    Best Bound    ItCnt     Gap

*     0+    0                       533875.1017    44880.8652            91.59%
*     0+    0                       533847.9795    44880.8652            91.59%
*     0+    0                       333826.8649    44880.8652            86.56%
*     0+    0                       333809.0666    44880.8652            86.55%
      0     0    79213.0345   216   333809.0666    79213.0345     1531   76.27%
      0     0    96254.6467   297   333809.0666     Cuts: 174     2064   71.16%
      0     0    96260.5560   272   333809.0666      Cuts: 81     2379   71.16%
      0     0    96261.7287   286   333809.0666      Cuts: 29     2510   71.16%
*     0+    0                       320982.4254    96261.7287            70.01%
      0     0  -1.00000e+75     0   320982.4254    96261.7287     2510   70.01%
      0     0    96272.4517   273   320982.4254      Cuts: 11     2614   70.01%
      0     0    96274.5936   256   320982.4254      Cuts: 25     2665   70.01%
Detecting symmetries...
      0     0    96276.5688   258   320982.4254      Cuts: 28     2717   70.01%
Detecting symmetries...
      0     2    96276.5688   258   320982.4254    96276.5688     2717   70.01%
Elapsed time = 3.34 sec. (5383.03 ticks, tree = 0.02 MB, solutions = 5)
     26    18    96307.9131   222   320982.4254    96287.3917     4754   70.00%
     76    66    98268.5286   235   320982.4254    96287.3917     9418   70.00%
    108   106   109154.5638   255   320982.4254    96287.3917    16192   70.00%
    120   111        cutoff         320982.4254    96287.3917    19042   70.00%
    149   129   115695.0987   231   320982.4254    96287.3917    23555   70.00%
    184   150   116857.7282   229   320982.4254    96287.3917    28326   70.00%
    194   171   129200.7453   222   320982.4254    96287.3917    30841   70.00%
    219   199    96307.4286   271   320982.4254    96287.3917    35985   70.00%
    256   199   103212.8823   217   320982.4254    96290.3774    35791   70.00%
    374   308    96504.3462   197   320982.4254    96290.3774    58270   70.00%
Elapsed time = 5.49 sec. (8586.90 ticks, tree = 1.26 MB, solutions = 5)
    531   408    96318.9567   215   320982.4254    96290.3774    77709   70.00%

Implied bound cuts applied:  2
Flow cuts applied:  121
Flow path cuts applied:  0
Zero-half cuts applied:  42
Gomory fractional cuts applied:  4

Root node processing (before b&c):
  Real time             =    3.31 sec. (5351.07 ticks)
Parallel b&c, 8 threads:
  Real time             =    3.09 sec. (4660.15 ticks)
  Sync time (average)   =    0.35 sec.
  Wait time (average)   =    0.00 sec.
                          ------------
Total (root+branch&cut) =    6.40 sec. (10011.22 ticks)
Gap: 70%
Upper bound: 320982
Lower bound: 96290.4
End of CPLEX run. Time: 6.40262 seconds

===== New CPLEX run =====
Instance: /home/yorig/tuner/mpils-tests/instances/miplib/medium-1/momentum1.mps
Config: /scratch/yorig/mpils-results-grid-ticks-10000/medium-1/16proc/seed-5/6_momentum1_seed-5_20260425_215516/expansion/config_param_CPXPARAM_MIP_Strategy_Dive_2_iter_1.prm
========================

Selected objective sense:  MINIMIZE
Selected objective  name:  MINIMIZE
Selected RHS        name:  rhs
Selected bound      name:  bnd
Version identifier: 22.1.2.0 | 2024-11-26 | 0edbb82fd
CPXPARAM_Threads                                 8
CPXPARAM_Parallel                                1
CPXPARAM_MIP_Cuts_Cliques                        -1
CPXPARAM_MIP_Cuts_FlowCovers                     2
CPXPARAM_MIP_Cuts_Implied                        1
CPXPARAM_MIP_Limits_GomoryCand                   25
CPXPARAM_MIP_Cuts_Gomory                         1
CPXPARAM_MIP_Cuts_PathCut                        1
CPXPARAM_MIP_Cuts_Disjunctive                    -1
CPXPARAM_Emphasis_MIP                            4
CPXPARAM_MIP_Strategy_Dive                       2
CPXPARAM_DetTimeLimit                            10000
Tried aggregator 3 times.
MIP Presolve eliminated 30810 rows and 1362 columns.
MIP Presolve modified 22293 coefficients.
Aggregator did 232 substitutions.
Reduced MIP has 11638 rows, 3580 columns, and 46688 nonzeros.
Reduced MIP has 1625 binaries, 0 generals, 0 SOSs, and 0 indicators.
Presolve time = 0.10 sec. (139.58 ticks)
Found incumbent of value 533875.101733 after 0.12 sec. (154.72 ticks)
Probing fixed 392 vars, tightened 1078 bounds.
Probing changed sense of 113 constraints.
Probing time = 0.08 sec. (90.30 ticks)
Cover probing fixed 0 vars, tightened 267 bounds.
Tried aggregator 2 times.
MIP Presolve eliminated 3295 rows and 847 columns.
MIP Presolve modified 7082 coefficients.
Aggregator did 11 substitutions.
Reduced MIP has 8332 rows, 2722 columns, and 31418 nonzeros.
Reduced MIP has 1168 binaries, 0 generals, 0 SOSs, and 0 indicators.
Presolve time = 0.04 sec. (44.43 ticks)
Probing fixed 1 vars, tightened 256 bounds.
Probing time = 0.04 sec. (44.20 ticks)
Cover probing fixed 0 vars, tightened 190 bounds.
Tried aggregator 1 time.
Detecting symmetries...
MIP Presolve eliminated 26 rows and 2 columns.
MIP Presolve modified 5059 coefficients.
Reduced MIP has 8306 rows, 2720 columns, and 31355 nonzeros.
Reduced MIP has 1167 binaries, 0 generals, 0 SOSs, and 0 indicators.
Presolve time = 0.02 sec. (22.06 ticks)
Probing fixed 0 vars, tightened 90 bounds.
Probing time = 0.04 sec. (40.55 ticks)
Cover probing fixed 0 vars, tightened 69 bounds.
Clique table members: 18692.
MIP emphasis: hidden feasible solutions.
MIP search method: dynamic search.
Parallel mode: deterministic, using up to 8 threads.
Root relaxation solution time = 0.11 sec. (144.31 ticks)

        Nodes                                         Cuts/
   Node  Left     Objective  IInf  Best Integer    Best Bound    ItCnt     Gap

*     0+    0                       533875.1017    44880.8652            91.59%
*     0+    0                       533847.9795    44880.8652            91.59%
*     0+    0                       333826.8649    44880.8652            86.56%
*     0+    0                       333809.0666    44880.8652            86.55%
      0     0    79213.0345   216   333809.0666    79213.0345     1531   76.27%
      0     0    96254.6467   297   333809.0666     Cuts: 174     2064   71.16%
      0     0    96260.5560   272   333809.0666      Cuts: 81     2379   71.16%
      0     0    96261.7287   286   333809.0666      Cuts: 29     2510   71.16%
*     0+    0                       320982.4254    96261.7287            70.01%
      0     0  -1.00000e+75     0   320982.4254    96261.7287     2510   70.01%
      0     0    96272.4517   273   320982.4254      Cuts: 11     2614   70.01%
      0     0    96274.5936   256   320982.4254      Cuts: 25     2665   70.01%
Detecting symmetries...
      0     0    96276.5688   258   320982.4254      Cuts: 28     2717   70.01%
Detecting symmetries...
      0     2    96276.5688   258   320982.4254    96276.5688     2717   70.01%
Elapsed time = 3.34 sec. (5383.03 ticks, tree = 0.02 MB, solutions = 5)
     25    18    96307.9131   222   320982.4254    96287.3917     4754   70.00%
     49    17   101426.5817   221   320982.4254    96287.3917     5101   70.00%
     72    63    96356.2500   285   320982.4254    96287.3917    13805   70.00%
     87    84    96492.8488   283   320982.4254    96287.3917    18254   70.00%
     95    86   102777.0632   218   320982.4254    96287.3917    19767   70.00%
    119    84   108256.9419   222   320982.4254    96287.3917    19114   70.00%
    143   123   109135.3557   209   320982.4254    96287.3917    29671   70.00%
    159   134   104356.6414   243   320982.4254    96287.3917    32390   70.00%
    209   166   115622.4164   136   320982.4254    96287.3917    38319   70.00%
    306   247   109443.5546   208   320982.4254    96287.3917    52082   70.00%
Elapsed time = 5.35 sec. (8641.50 ticks, tree = 0.73 MB, solutions = 5)
    463   339    98002.0454   207   320982.4254    96287.3917    68880   70.00%

Implied bound cuts applied:  2
Flow cuts applied:  118
Flow path cuts applied:  0
Zero-half cuts applied:  41
Gomory fractional cuts applied:  4

Root node processing (before b&c):
  Real time             =    3.32 sec. (5351.07 ticks)
Parallel b&c, 8 threads:
  Real time             =    2.93 sec. (4653.67 ticks)
  Sync time (average)   =    0.33 sec.
  Wait time (average)   =    0.00 sec.
                          ------------
Total (root+branch&cut) =    6.25 sec. (10004.73 ticks)
Gap: 70%
Upper bound: 320982
Lower bound: 96287.4
End of CPLEX run. Time: 6.24971 seconds

===== New CPLEX run =====
Instance: /home/yorig/tuner/mpils-tests/instances/miplib/medium-1/momentum1.mps
Config: /scratch/yorig/mpils-results-grid-ticks-10000/medium-1/16proc/seed-5/6_momentum1_seed-5_20260425_215516/expansion/config_param_CPXPARAM_MIP_Strategy_Dive_3_iter_1.prm
========================

Selected objective sense:  MINIMIZE
Selected objective  name:  MINIMIZE
Selected RHS        name:  rhs
Selected bound      name:  bnd
Version identifier: 22.1.2.0 | 2024-11-26 | 0edbb82fd
CPXPARAM_Threads                                 8
CPXPARAM_Parallel                                1
CPXPARAM_MIP_Cuts_Cliques                        -1
CPXPARAM_MIP_Cuts_FlowCovers                     2
CPXPARAM_MIP_Cuts_Implied                        1
CPXPARAM_MIP_Limits_GomoryCand                   25
CPXPARAM_MIP_Cuts_Gomory                         1
CPXPARAM_MIP_Cuts_PathCut                        1
CPXPARAM_MIP_Cuts_Disjunctive                    -1
CPXPARAM_Emphasis_MIP                            4
CPXPARAM_MIP_Strategy_Dive                       3
CPXPARAM_DetTimeLimit                            10000
Tried aggregator 3 times.
MIP Presolve eliminated 30810 rows and 1362 columns.
MIP Presolve modified 22293 coefficients.
Aggregator did 232 substitutions.
Reduced MIP has 11638 rows, 3580 columns, and 46688 nonzeros.
Reduced MIP has 1625 binaries, 0 generals, 0 SOSs, and 0 indicators.
Presolve time = 0.10 sec. (139.58 ticks)
Found incumbent of value 533875.101733 after 0.12 sec. (154.72 ticks)
Probing fixed 392 vars, tightened 1078 bounds.
Probing changed sense of 113 constraints.
Probing time = 0.08 sec. (90.30 ticks)
Cover probing fixed 0 vars, tightened 267 bounds.
Tried aggregator 2 times.
MIP Presolve eliminated 3295 rows and 847 columns.
MIP Presolve modified 7082 coefficients.
Aggregator did 11 substitutions.
Reduced MIP has 8332 rows, 2722 columns, and 31418 nonzeros.
Reduced MIP has 1168 binaries, 0 generals, 0 SOSs, and 0 indicators.
Presolve time = 0.04 sec. (44.43 ticks)
Probing fixed 1 vars, tightened 256 bounds.
Probing time = 0.04 sec. (44.20 ticks)
Cover probing fixed 0 vars, tightened 190 bounds.
Tried aggregator 1 time.
Detecting symmetries...
MIP Presolve eliminated 26 rows and 2 columns.
MIP Presolve modified 5059 coefficients.
Reduced MIP has 8306 rows, 2720 columns, and 31355 nonzeros.
Reduced MIP has 1167 binaries, 0 generals, 0 SOSs, and 0 indicators.
Presolve time = 0.02 sec. (22.06 ticks)
Probing fixed 0 vars, tightened 90 bounds.
Probing time = 0.04 sec. (40.55 ticks)
Cover probing fixed 0 vars, tightened 69 bounds.
Clique table members: 18692.
MIP emphasis: hidden feasible solutions.
MIP search method: dynamic search.
Parallel mode: deterministic, using up to 8 threads.
Root relaxation solution time = 0.11 sec. (144.31 ticks)

        Nodes                                         Cuts/
   Node  Left     Objective  IInf  Best Integer    Best Bound    ItCnt     Gap

*     0+    0                       533875.1017    44880.8652            91.59%
*     0+    0                       533847.9795    44880.8652            91.59%
*     0+    0                       333826.8649    44880.8652            86.56%
*     0+    0                       333809.0666    44880.8652            86.55%
      0     0    79213.0345   216   333809.0666    79213.0345     1531   76.27%
      0     0    96254.6467   297   333809.0666     Cuts: 174     2064   71.16%
      0     0    96260.5560   272   333809.0666      Cuts: 81     2379   71.16%
      0     0    96261.7287   286   333809.0666      Cuts: 29     2510   71.16%
*     0+    0                       320982.4254    96261.7287            70.01%
      0     0  -1.00000e+75     0   320982.4254    96261.7287     2510   70.01%
      0     0    96272.4517   273   320982.4254      Cuts: 11     2614   70.01%
      0     0    96274.5936   256   320982.4254      Cuts: 25     2665   70.01%
Detecting symmetries...
      0     0    96276.5688   258   320982.4254      Cuts: 28     2717   70.01%
Detecting symmetries...
      0     2    96276.5688   258   320982.4254    96276.5688     2717   70.01%
Elapsed time = 3.33 sec. (5383.03 ticks, tree = 0.02 MB, solutions = 5)
     24    19    96304.3354   252   320982.4254    96287.3917     4910   70.00%
     45    21   101512.6196   245   320982.4254    96287.3917     6050   70.00%
     62    53    96330.1022   274   320982.4254    96287.3917    13458   70.00%
     83    80    97340.5147   250   320982.4254    96287.3917    17135   70.00%
    109    96   115591.8952   100   320982.4254    96287.3917    19541   70.00%
    152   126   102799.5546   180   320982.4254    96287.3917    23821   70.00%
    200   148   102813.2799   235   320982.4254    96287.3917    27207   70.00%
    233   207   102742.1419   170   320982.4254    96287.3917    34557   70.00%
    278   249   109179.5651    79   320982.4254    96287.3917    36929   70.00%
*   354   302      integral     0   122106.9412    96287.3917    45774   21.15%
*   355   301      integral     0   122094.8359    96287.3917    45776   21.14%
    553   432   122081.9965   101   122094.8359    96287.3917    54886   21.14%
Elapsed time = 5.47 sec. (8584.88 ticks, tree = 1.14 MB, solutions = 7)
*   564+  408                       115654.5736    96287.3917            16.75%
    707   462    96293.0190   243   115654.5736    96293.0492    70188   16.74%
*   749+  445                       109222.1436    96293.0492            11.84%
*   770+  445                       109221.7700    96293.8598            11.84%
*   772+  445                       109221.6677    96293.8598            11.84%
*   779+  445                       109198.5250    96293.8598            11.82%

Implied bound cuts applied:  2
Flow cuts applied:  120
Flow path cuts applied:  0
Zero-half cuts applied:  41
Gomory fractional cuts applied:  4

Root node processing (before b&c):
  Real time             =    3.31 sec. (5351.34 ticks)
Parallel b&c, 8 threads:
  Real time             =    3.19 sec. (4657.59 ticks)
  Sync time (average)   =    0.44 sec.
  Wait time (average)   =    0.00 sec.
                          ------------
Total (root+branch&cut) =    6.50 sec. (10008.93 ticks)
Gap: 11.82%
Upper bound: 109199
Lower bound: 96293.9
End of CPLEX run. Time: 6.49895 seconds

===== New CPLEX run =====
Instance: /home/yorig/tuner/mpils-tests/instances/miplib/medium-1/momentum1.mps
Config: /scratch/yorig/mpils-results-grid-ticks-10000/medium-1/16proc/seed-5/6_momentum1_seed-5_20260425_215516/expansion/config_param_CPXPARAM_MIP_Limits_ProbeTime_0_iter_1.prm
========================

Selected objective sense:  MINIMIZE
Selected objective  name:  MINIMIZE
Selected RHS        name:  rhs
Selected bound      name:  bnd
Version identifier: 22.1.2.0 | 2024-11-26 | 0edbb82fd
CPXPARAM_Threads                                 8
CPXPARAM_Parallel                                1
CPXPARAM_MIP_Cuts_Cliques                        -1
CPXPARAM_MIP_Cuts_FlowCovers                     2
CPXPARAM_MIP_Cuts_Implied                        1
CPXPARAM_MIP_Limits_GomoryCand                   25
CPXPARAM_MIP_Cuts_Gomory                         1
CPXPARAM_MIP_Cuts_PathCut                        1
CPXPARAM_MIP_Cuts_Disjunctive                    -1
CPXPARAM_Emphasis_MIP                            4
CPXPARAM_DetTimeLimit                            10000
CPXPARAM_MIP_Limits_ProbeTime                    0
Tried aggregator 3 times.
MIP Presolve eliminated 30810 rows and 1362 columns.
MIP Presolve modified 22293 coefficients.
Aggregator did 232 substitutions.
Reduced MIP has 11638 rows, 3580 columns, and 46688 nonzeros.
Reduced MIP has 1625 binaries, 0 generals, 0 SOSs, and 0 indicators.
Presolve time = 0.10 sec. (139.58 ticks)
Found incumbent of value 533875.101733 after 0.12 sec. (154.72 ticks)
Tried aggregator 2 times.
Detecting symmetries...
MIP Presolve eliminated 11 rows and 2 columns.
MIP Presolve modified 3236 coefficients.
Aggregator did 2 substitutions.
Reduced MIP has 11625 rows, 3576 columns, and 46645 nonzeros.
Reduced MIP has 1624 binaries, 0 generals, 0 SOSs, and 0 indicators.
Presolve time = 0.04 sec. (44.81 ticks)
Clique table members: 2746.
MIP emphasis: hidden feasible solutions.
MIP search method: dynamic search.
Parallel mode: deterministic, using up to 8 threads.
Root relaxation solution time = 0.21 sec. (278.90 ticks)

        Nodes                                         Cuts/
   Node  Left     Objective  IInf  Best Integer    Best Bound    ItCnt     Gap

*     0+    0                       533875.1017    25666.9929            95.19%
*     0+    0                       533874.5739    25666.9929            95.19%
      0     0    72793.7949   250   533874.5739    72793.7949     2108   86.37%
*     0+    0                       488504.7040    72793.7949            85.10%
      0     0    93055.1800   265   488504.7040     Cuts: 145     2551   80.95%
      0     0    96257.1774   311   488504.7040      Cuts: 58     3000   80.30%
*     0+    0                       398099.2633    96257.1774            75.82%
      0     0    96260.0058   323   398099.2633      Cuts: 20     3123   75.82%
*     0+    0                       365964.2305    96260.0058            73.70%
      0     0  -1.00000e+75     0   365964.2305    96260.0058     3123   73.70%
      0     0    96261.0705   322   365964.2305      Cuts: 21     3147   73.70%
*     0+    0                       327468.4128    96261.0705            70.60%
Detecting symmetries...
      0     2    96261.0705   322   327468.4128    96273.5204     3147   70.60%
Elapsed time = 4.24 sec. (6926.32 ticks, tree = 0.02 MB, solutions = 6)
      3     4    99616.8945   265   327468.4128    96273.5204     3885   70.60%
     22    18    96305.7267   259   327468.4128    96273.5204     6710   70.60%
     41    18   103620.6705   239   327468.4128    96279.5064     6986   70.60%
     43    44   109096.9163   217   327468.4128    96279.5064    11880   70.60%
     71    51   109102.8356   243   327468.4128    96280.3639    16803   70.60%
    100    77   109230.6035   203   327468.4128    96280.3639    20794   70.60%
    122   103   110552.3439   244   327468.4128    96280.3639    24376   70.60%
    129   107    96339.7429   243   327468.4128    96280.3639    30782   70.60%
    160   121   109183.6530   246   327468.4128    96280.3639    34134   70.60%

Implied bound cuts applied:  1
Flow cuts applied:  101
Flow path cuts applied:  0
Zero-half cuts applied:  35
Gomory fractional cuts applied:  5

Root node processing (before b&c):
  Real time             =    4.21 sec. (6880.82 ticks)
Parallel b&c, 8 threads:
  Real time             =    1.99 sec. (3137.58 ticks)
  Sync time (average)   =    0.34 sec.
  Wait time (average)   =    0.00 sec.
                          ------------
Total (root+branch&cut) =    6.20 sec. (10018.39 ticks)
Gap: 70.6%
Upper bound: 327468
Lower bound: 96280.4
End of CPLEX run. Time: 6.19816 seconds
